; Options: -q --produce-models --incremental --print-success --lang smt2.6 --arrays-exp
(set-logic ALL)

(declare-fun start!557 () Bool)

(assert start!557)

(declare-datatypes ((Unit!13 0))(
  ( (Unit!14) )
))
(declare-datatypes ((array!32 0))(
  ( (array!33 (arr!15 (Array (_ BitVec 32) (_ BitVec 32))) (size!15 (_ BitVec 32))) )
))
(declare-datatypes ((tuple4!12 0))(
  ( (tuple4!13 (_1!45 Unit!13) (_2!45 array!32) (_3!33 (_ BitVec 32)) (_4!6 (_ FloatingPoint 11 53))) )
))
(declare-fun e!474 () tuple4!12)

(declare-fun lt!624 () array!32)

(declare-fun jz!42 () (_ BitVec 32))

(declare-fun lt!623 () (_ FloatingPoint 11 53))

(declare-fun b!696 () Bool)

(declare-datatypes ((array!34 0))(
  ( (array!35 (arr!16 (Array (_ BitVec 32) (_ FloatingPoint 11 53))) (size!16 (_ BitVec 32))) )
))
(declare-fun q!70 () array!34)

(declare-fun computeModuloWhile!0 ((_ BitVec 32) array!34 array!32 (_ BitVec 32) (_ FloatingPoint 11 53)) tuple4!12)

(assert (=> b!696 (= e!474 (computeModuloWhile!0 jz!42 q!70 lt!624 jz!42 lt!623))))

(declare-fun b!697 () Bool)

(declare-fun e!475 () Bool)

(declare-fun e!478 () Bool)

(assert (=> b!697 (= e!475 e!478)))

(declare-fun res!759 () Bool)

(assert (=> b!697 (=> (not res!759) (not e!478))))

(declare-fun lt!626 () (_ FloatingPoint 11 53))

(declare-fun lt!627 () tuple4!12)

(assert (=> b!697 (= res!759 (and (fp.leq (fp #b0 #b00000000000 #b0000000000000000000000000000000000000000000000000000) lt!626) (fp.lt lt!626 (fp #b0 #b10000000010 #b0000000000000000000000000000000000000000000000000000)) (bvsge (select (arr!15 (_2!45 lt!627)) (bvsub jz!42 #b00000000000000000000000000000001)) #b00000000100000000000000000000000)))))

(assert (=> b!697 (= lt!626 (fp.sub roundNearestTiesToEven (_4!6 lt!627) (fp.mul roundNearestTiesToEven (fp #b0 #b10000000010 #b0000000000000000000000000000000000000000000000000000) ((_ to_fp 11 53) roundNearestTiesToEven (ite (fp.isNaN (fp.mul roundNearestTiesToEven (_4!6 lt!627) (fp #b0 #b01111111100 #b0000000000000000000000000000000000000000000000000000))) #b0000000000000000000000000000000000000000000000000000000000000000 (ite (fp.gt (fp.mul roundNearestTiesToEven (_4!6 lt!627) (fp #b0 #b01111111100 #b0000000000000000000000000000000000000000000000000000)) ((_ to_fp 11 53) roundTowardZero #b0111111111111111111111111111111111111111111111111111111111111111)) #b0111111111111111111111111111111111111111111111111111111111111111 (ite (fp.lt (fp.mul roundNearestTiesToEven (_4!6 lt!627) (fp #b0 #b01111111100 #b0000000000000000000000000000000000000000000000000000)) ((_ to_fp 11 53) roundTowardZero #b1000000000000000000000000000000000000000000000000000000000000000)) #b1000000000000000000000000000000000000000000000000000000000000000 ((_ fp.to_sbv 64) roundTowardZero (fp.mul roundNearestTiesToEven (_4!6 lt!627) (fp #b0 #b01111111100 #b0000000000000000000000000000000000000000000000000000))))))))))))

(assert (=> b!697 (= lt!627 e!474)))

(declare-fun c!175 () Bool)

(assert (=> b!697 (= c!175 (bvsgt jz!42 #b00000000000000000000000000000000))))

(assert (=> b!697 (= lt!623 (select (arr!16 q!70) jz!42))))

(assert (=> b!697 (= lt!624 (array!33 ((as const (Array (_ BitVec 32) (_ BitVec 32))) #b00000000000000000000000000000000) #b00000000000000000000000000010100))))

(declare-fun b!698 () Bool)

(declare-fun res!762 () Bool)

(declare-fun e!473 () Bool)

(assert (=> b!698 (=> (not res!762) (not e!473))))

(declare-fun qInv!0 (array!34) Bool)

(assert (=> b!698 (= res!762 (qInv!0 q!70))))

(declare-fun b!699 () Bool)

(declare-fun lt!625 () (_ FloatingPoint 11 53))

(declare-fun e!477 () tuple4!12)

(declare-fun lt!629 () array!32)

(assert (=> b!699 (= e!477 (computeModuloWhile!0 jz!42 q!70 lt!629 jz!42 lt!625))))

(declare-fun b!700 () Bool)

(declare-fun Unit!15 () Unit!13)

(assert (=> b!700 (= e!474 (tuple4!13 Unit!15 lt!624 jz!42 lt!623))))

(declare-fun b!701 () Bool)

(declare-fun res!763 () Bool)

(declare-fun e!476 () Bool)

(assert (=> b!701 (=> res!763 e!476)))

(declare-fun lt!628 () tuple4!12)

(declare-fun iqInv!0 (array!32) Bool)

(assert (=> b!701 (= res!763 (not (iqInv!0 (_2!45 lt!628))))))

(declare-fun res!760 () Bool)

(assert (=> start!557 (=> (not res!760) (not e!473))))

(assert (=> start!557 (= res!760 (and (bvsle #b00000000000000000000000000000010 jz!42) (bvslt jz!42 #b00000000000000000000000000010011)))))

(assert (=> start!557 e!473))

(assert (=> start!557 true))

(declare-fun array_inv!3 (array!34) Bool)

(assert (=> start!557 (array_inv!3 q!70)))

(declare-fun b!702 () Bool)

(assert (=> b!702 (= e!478 e!476)))

(declare-fun res!765 () Bool)

(assert (=> b!702 (=> res!765 e!476)))

(declare-fun lt!630 () (_ BitVec 32))

(assert (=> b!702 (= res!765 (or (bvsgt #b00000000000000000000000000000000 lt!630) (bvsgt lt!630 (bvsub jz!42 #b00000000000000000000000000000001))))))

(declare-fun b!703 () Bool)

(declare-fun e!472 () Bool)

(declare-fun e!471 () Bool)

(assert (=> b!703 (= e!472 e!471)))

(declare-fun res!766 () Bool)

(assert (=> b!703 (=> (not res!766) (not e!471))))

(assert (=> b!703 (= res!766 (bvsge (select (arr!15 (_2!45 lt!628)) (bvsub jz!42 #b00000000000000000000000000000001)) #b00000000100000000000000000000000))))

(declare-fun lt!631 () (_ BitVec 32))

(assert (=> b!703 (= lt!631 #b00000000000000000000000000000000)))

(declare-fun b!704 () Bool)

(assert (=> b!704 (= e!471 e!475)))

(declare-fun res!761 () Bool)

(assert (=> b!704 (=> (not res!761) (not e!475))))

(assert (=> b!704 (= res!761 (bvslt lt!630 (bvsub jz!42 #b00000000000000000000000000000001)))))

(assert (=> b!704 (= lt!630 #b00000000000000000000000000000000)))

(declare-fun b!705 () Bool)

(assert (=> b!705 (= e!473 e!472)))

(declare-fun res!764 () Bool)

(assert (=> b!705 (=> (not res!764) (not e!472))))

(declare-fun lt!632 () (_ FloatingPoint 11 53))

(assert (=> b!705 (= res!764 (and (fp.leq (fp #b0 #b00000000000 #b0000000000000000000000000000000000000000000000000000) lt!632) (fp.lt lt!632 (fp #b0 #b10000000010 #b0000000000000000000000000000000000000000000000000000))))))

(assert (=> b!705 (= lt!632 (fp.sub roundNearestTiesToEven (_4!6 lt!628) (fp.mul roundNearestTiesToEven (fp #b0 #b10000000010 #b0000000000000000000000000000000000000000000000000000) ((_ to_fp 11 53) roundNearestTiesToEven (ite (fp.isNaN (fp.mul roundNearestTiesToEven (_4!6 lt!628) (fp #b0 #b01111111100 #b0000000000000000000000000000000000000000000000000000))) #b0000000000000000000000000000000000000000000000000000000000000000 (ite (fp.gt (fp.mul roundNearestTiesToEven (_4!6 lt!628) (fp #b0 #b01111111100 #b0000000000000000000000000000000000000000000000000000)) ((_ to_fp 11 53) roundTowardZero #b0111111111111111111111111111111111111111111111111111111111111111)) #b0111111111111111111111111111111111111111111111111111111111111111 (ite (fp.lt (fp.mul roundNearestTiesToEven (_4!6 lt!628) (fp #b0 #b01111111100 #b0000000000000000000000000000000000000000000000000000)) ((_ to_fp 11 53) roundTowardZero #b1000000000000000000000000000000000000000000000000000000000000000)) #b1000000000000000000000000000000000000000000000000000000000000000 ((_ fp.to_sbv 64) roundTowardZero (fp.mul roundNearestTiesToEven (_4!6 lt!628) (fp #b0 #b01111111100 #b0000000000000000000000000000000000000000000000000000))))))))))))

(assert (=> b!705 (= lt!628 e!477)))

(declare-fun c!176 () Bool)

(assert (=> b!705 (= c!176 (bvsgt jz!42 #b00000000000000000000000000000000))))

(assert (=> b!705 (= lt!625 (select (arr!16 q!70) jz!42))))

(assert (=> b!705 (= lt!629 (array!33 ((as const (Array (_ BitVec 32) (_ BitVec 32))) #b00000000000000000000000000000000) #b00000000000000000000000000010100))))

(declare-fun b!706 () Bool)

(assert (=> b!706 (= e!476 (or (bvslt (select (arr!15 (_2!45 lt!628)) (bvsub jz!42 #b00000000000000000000000000000001)) #b00000000100000000000000000000000) (and (not (= lt!631 #b00000000000000000000000000000000)) (not (= lt!631 #b00000000000000000000000000000001)))))))

(declare-fun b!707 () Bool)

(declare-fun Unit!16 () Unit!13)

(assert (=> b!707 (= e!477 (tuple4!13 Unit!16 lt!629 jz!42 lt!625))))

(assert (= (and start!557 res!760) b!698))

(assert (= (and b!698 res!762) b!705))

(assert (= (and b!705 c!176) b!699))

(assert (= (and b!705 (not c!176)) b!707))

(assert (= (and b!705 res!764) b!703))

(assert (= (and b!703 res!766) b!704))

(assert (= (and b!704 res!761) b!697))

(assert (= (and b!697 c!175) b!696))

(assert (= (and b!697 (not c!175)) b!700))

(assert (= (and b!697 res!759) b!702))

(assert (= (and b!702 (not res!765)) b!701))

(assert (= (and b!701 (not res!763)) b!706))

(declare-fun m!893 () Bool)

(assert (=> b!699 m!893))

(declare-fun m!895 () Bool)

(assert (=> b!705 m!895))

(declare-fun m!897 () Bool)

(assert (=> start!557 m!897))

(declare-fun m!899 () Bool)

(assert (=> b!698 m!899))

(declare-fun m!901 () Bool)

(assert (=> b!696 m!901))

(declare-fun m!903 () Bool)

(assert (=> b!701 m!903))

(declare-fun m!905 () Bool)

(assert (=> b!703 m!905))

(declare-fun m!907 () Bool)

(assert (=> b!697 m!907))

(assert (=> b!697 m!895))

(assert (=> b!706 m!905))

(push 1)

(assert (not b!698))

(assert (not b!699))

(assert (not b!696))

(assert (not b!701))

(assert (not start!557))

(check-sat)

(pop 1)

(push 1)

(check-sat)

(get-model)

(pop 1)

(declare-fun b!720 () Bool)

(declare-fun e!486 () Bool)

(declare-fun lt!645 () tuple4!12)

(assert (=> b!720 (= e!486 (bvsle (_3!33 lt!645) #b00000000000000000000000000000000))))

(declare-fun lt!646 () (_ FloatingPoint 11 53))

(declare-fun b!721 () Bool)

(declare-fun lt!647 () array!32)

(declare-fun e!485 () tuple4!12)

(declare-fun lt!644 () (_ BitVec 32))

(assert (=> b!721 (= e!485 (computeModuloWhile!0 jz!42 q!70 lt!647 lt!644 lt!646))))

(declare-fun d!654 () Bool)

(assert (=> d!654 e!486))

(declare-fun res!775 () Bool)

(assert (=> d!654 (=> (not res!775) (not e!486))))

(assert (=> d!654 (= res!775 (and true true (bvsle #b00000000000000000000000000000000 (_3!33 lt!645)) (bvsle (_3!33 lt!645) jz!42) (fp.leq (fp #b0 #b00000000000 #b0000000000000000000000000000000000000000000000000000) (_4!6 lt!645)) (fp.leq (_4!6 lt!645) (fp #b0 #b10000110001 #b0100000000000000000000010011111111111111111111111100))))))

(assert (=> d!654 (= lt!645 e!485)))

(declare-fun c!179 () Bool)

(assert (=> d!654 (= c!179 (bvsgt lt!644 #b00000000000000000000000000000000))))

(assert (=> d!654 (= lt!644 (bvsub jz!42 #b00000000000000000000000000000001))))

(declare-fun lt!643 () (_ FloatingPoint 11 53))

(assert (=> d!654 (= lt!646 (fp.add roundNearestTiesToEven (select (arr!16 q!70) (bvsub jz!42 #b00000000000000000000000000000001)) lt!643))))

(assert (=> d!654 (= lt!647 (array!33 (store (arr!15 lt!629) (bvsub jz!42 jz!42) (ite (fp.isNaN (fp.sub roundNearestTiesToEven lt!625 (fp.mul roundNearestTiesToEven (fp #b0 #b10000010111 #b0000000000000000000000000000000000000000000000000000) lt!643))) #b00000000000000000000000000000000 (ite (fp.gt (fp.sub roundNearestTiesToEven lt!625 (fp.mul roundNearestTiesToEven (fp #b0 #b10000010111 #b0000000000000000000000000000000000000000000000000000) lt!643)) ((_ to_fp 11 53) roundTowardZero #b01111111111111111111111111111111)) #b01111111111111111111111111111111 (ite (fp.lt (fp.sub roundNearestTiesToEven lt!625 (fp.mul roundNearestTiesToEven (fp #b0 #b10000010111 #b0000000000000000000000000000000000000000000000000000) lt!643)) ((_ to_fp 11 53) roundTowardZero #b10000000000000000000000000000000)) #b10000000000000000000000000000000 ((_ fp.to_sbv 32) roundTowardZero (fp.sub roundNearestTiesToEven lt!625 (fp.mul roundNearestTiesToEven (fp #b0 #b10000010111 #b0000000000000000000000000000000000000000000000000000) lt!643))))))) (size!15 lt!629)))))

(assert (=> d!654 (= lt!643 ((_ to_fp 11 53) roundNearestTiesToEven (ite (fp.isNaN (fp.mul roundNearestTiesToEven (fp #b0 #b01111100111 #b0000000000000000000000000000000000000000000000000000) lt!625)) #b00000000000000000000000000000000 (ite (fp.gt (fp.mul roundNearestTiesToEven (fp #b0 #b01111100111 #b0000000000000000000000000000000000000000000000000000) lt!625) ((_ to_fp 11 53) roundTowardZero #b01111111111111111111111111111111)) #b01111111111111111111111111111111 (ite (fp.lt (fp.mul roundNearestTiesToEven (fp #b0 #b01111100111 #b0000000000000000000000000000000000000000000000000000) lt!625) ((_ to_fp 11 53) roundTowardZero #b10000000000000000000000000000000)) #b10000000000000000000000000000000 ((_ fp.to_sbv 32) roundTowardZero (fp.mul roundNearestTiesToEven (fp #b0 #b01111100111 #b0000000000000000000000000000000000000000000000000000) lt!625)))))))))

(declare-fun e!487 () Bool)

(assert (=> d!654 e!487))

(declare-fun res!776 () Bool)

(assert (=> d!654 (=> (not res!776) (not e!487))))

(assert (=> d!654 (= res!776 (and (bvsle #b00000000000000000000000000000000 jz!42) (bvsle jz!42 jz!42) (fp.leq (fp #b0 #b00000000000 #b0000000000000000000000000000000000000000000000000000) lt!625) (fp.leq lt!625 (fp #b0 #b10000110001 #b0100000000000000000000010011111111111111111111111100))))))

(assert (=> d!654 (= (computeModuloWhile!0 jz!42 q!70 lt!629 jz!42 lt!625) lt!645)))

(declare-fun b!722 () Bool)

(assert (=> b!722 (= e!487 (bvsgt jz!42 #b00000000000000000000000000000000))))

(declare-fun b!723 () Bool)

(declare-fun res!777 () Bool)

(assert (=> b!723 (=> (not res!777) (not e!487))))

(assert (=> b!723 (= res!777 (iqInv!0 lt!629))))

(declare-fun b!724 () Bool)

(declare-fun res!778 () Bool)

(assert (=> b!724 (=> (not res!778) (not e!486))))

(assert (=> b!724 (= res!778 (iqInv!0 (_2!45 lt!645)))))

(declare-fun b!725 () Bool)

(declare-fun Unit!17 () Unit!13)

(assert (=> b!725 (= e!485 (tuple4!13 Unit!17 lt!647 lt!644 lt!646))))

(assert (= (and d!654 res!776) b!723))

(assert (= (and b!723 res!777) b!722))

(assert (= (and d!654 c!179) b!721))

(assert (= (and d!654 (not c!179)) b!725))

(assert (= (and d!654 res!775) b!724))

(assert (= (and b!724 res!778) b!720))

(declare-fun m!909 () Bool)

(assert (=> b!721 m!909))

(declare-fun m!911 () Bool)

(assert (=> d!654 m!911))

(declare-fun m!913 () Bool)

(assert (=> d!654 m!913))

(declare-fun m!915 () Bool)

(assert (=> b!723 m!915))

(declare-fun m!917 () Bool)

(assert (=> b!724 m!917))

(assert (=> b!699 d!654))

(declare-fun d!656 () Bool)

(declare-fun res!781 () Bool)

(declare-fun e!490 () Bool)

(assert (=> d!656 (=> (not res!781) (not e!490))))

(assert (=> d!656 (= res!781 (= (size!16 q!70) #b00000000000000000000000000010100))))

(assert (=> d!656 (= (qInv!0 q!70) e!490)))

(declare-fun b!728 () Bool)

(declare-fun lambda!14 () Int)

(declare-fun all20!0 (array!34 Int) Bool)

(assert (=> b!728 (= e!490 (all20!0 q!70 lambda!14))))

(assert (= (and d!656 res!781) b!728))

(declare-fun m!919 () Bool)

(assert (=> b!728 m!919))

(assert (=> b!698 d!656))

(declare-fun d!658 () Bool)

(assert (=> d!658 (= (array_inv!3 q!70) (bvsge (size!16 q!70) #b00000000000000000000000000000000))))

(assert (=> start!557 d!658))

(declare-fun b!729 () Bool)

(declare-fun e!492 () Bool)

(declare-fun lt!650 () tuple4!12)

(assert (=> b!729 (= e!492 (bvsle (_3!33 lt!650) #b00000000000000000000000000000000))))

(declare-fun lt!652 () array!32)

(declare-fun lt!649 () (_ BitVec 32))

(declare-fun e!491 () tuple4!12)

(declare-fun b!730 () Bool)

(declare-fun lt!651 () (_ FloatingPoint 11 53))

(assert (=> b!730 (= e!491 (computeModuloWhile!0 jz!42 q!70 lt!652 lt!649 lt!651))))

(declare-fun d!660 () Bool)

(assert (=> d!660 e!492))

(declare-fun res!782 () Bool)

(assert (=> d!660 (=> (not res!782) (not e!492))))

(assert (=> d!660 (= res!782 (and true true (bvsle #b00000000000000000000000000000000 (_3!33 lt!650)) (bvsle (_3!33 lt!650) jz!42) (fp.leq (fp #b0 #b00000000000 #b0000000000000000000000000000000000000000000000000000) (_4!6 lt!650)) (fp.leq (_4!6 lt!650) (fp #b0 #b10000110001 #b0100000000000000000000010011111111111111111111111100))))))

(assert (=> d!660 (= lt!650 e!491)))

(declare-fun c!180 () Bool)

(assert (=> d!660 (= c!180 (bvsgt lt!649 #b00000000000000000000000000000000))))

(assert (=> d!660 (= lt!649 (bvsub jz!42 #b00000000000000000000000000000001))))

(declare-fun lt!648 () (_ FloatingPoint 11 53))

(assert (=> d!660 (= lt!651 (fp.add roundNearestTiesToEven (select (arr!16 q!70) (bvsub jz!42 #b00000000000000000000000000000001)) lt!648))))

(assert (=> d!660 (= lt!652 (array!33 (store (arr!15 lt!624) (bvsub jz!42 jz!42) (ite (fp.isNaN (fp.sub roundNearestTiesToEven lt!623 (fp.mul roundNearestTiesToEven (fp #b0 #b10000010111 #b0000000000000000000000000000000000000000000000000000) lt!648))) #b00000000000000000000000000000000 (ite (fp.gt (fp.sub roundNearestTiesToEven lt!623 (fp.mul roundNearestTiesToEven (fp #b0 #b10000010111 #b0000000000000000000000000000000000000000000000000000) lt!648)) ((_ to_fp 11 53) roundTowardZero #b01111111111111111111111111111111)) #b01111111111111111111111111111111 (ite (fp.lt (fp.sub roundNearestTiesToEven lt!623 (fp.mul roundNearestTiesToEven (fp #b0 #b10000010111 #b0000000000000000000000000000000000000000000000000000) lt!648)) ((_ to_fp 11 53) roundTowardZero #b10000000000000000000000000000000)) #b10000000000000000000000000000000 ((_ fp.to_sbv 32) roundTowardZero (fp.sub roundNearestTiesToEven lt!623 (fp.mul roundNearestTiesToEven (fp #b0 #b10000010111 #b0000000000000000000000000000000000000000000000000000) lt!648))))))) (size!15 lt!624)))))

(assert (=> d!660 (= lt!648 ((_ to_fp 11 53) roundNearestTiesToEven (ite (fp.isNaN (fp.mul roundNearestTiesToEven (fp #b0 #b01111100111 #b0000000000000000000000000000000000000000000000000000) lt!623)) #b00000000000000000000000000000000 (ite (fp.gt (fp.mul roundNearestTiesToEven (fp #b0 #b01111100111 #b0000000000000000000000000000000000000000000000000000) lt!623) ((_ to_fp 11 53) roundTowardZero #b01111111111111111111111111111111)) #b01111111111111111111111111111111 (ite (fp.lt (fp.mul roundNearestTiesToEven (fp #b0 #b01111100111 #b0000000000000000000000000000000000000000000000000000) lt!623) ((_ to_fp 11 53) roundTowardZero #b10000000000000000000000000000000)) #b10000000000000000000000000000000 ((_ fp.to_sbv 32) roundTowardZero (fp.mul roundNearestTiesToEven (fp #b0 #b01111100111 #b0000000000000000000000000000000000000000000000000000) lt!623)))))))))

(declare-fun e!493 () Bool)

(assert (=> d!660 e!493))

(declare-fun res!783 () Bool)

(assert (=> d!660 (=> (not res!783) (not e!493))))

(assert (=> d!660 (= res!783 (and (bvsle #b00000000000000000000000000000000 jz!42) (bvsle jz!42 jz!42) (fp.leq (fp #b0 #b00000000000 #b0000000000000000000000000000000000000000000000000000) lt!623) (fp.leq lt!623 (fp #b0 #b10000110001 #b0100000000000000000000010011111111111111111111111100))))))

(assert (=> d!660 (= (computeModuloWhile!0 jz!42 q!70 lt!624 jz!42 lt!623) lt!650)))

(declare-fun b!731 () Bool)

(assert (=> b!731 (= e!493 (bvsgt jz!42 #b00000000000000000000000000000000))))

(declare-fun b!732 () Bool)

(declare-fun res!784 () Bool)

(assert (=> b!732 (=> (not res!784) (not e!493))))

(assert (=> b!732 (= res!784 (iqInv!0 lt!624))))

(declare-fun b!733 () Bool)

(declare-fun res!785 () Bool)

(assert (=> b!733 (=> (not res!785) (not e!492))))

(assert (=> b!733 (= res!785 (iqInv!0 (_2!45 lt!650)))))

(declare-fun b!734 () Bool)

(declare-fun Unit!18 () Unit!13)

(assert (=> b!734 (= e!491 (tuple4!13 Unit!18 lt!652 lt!649 lt!651))))

(assert (= (and d!660 res!783) b!732))

(assert (= (and b!732 res!784) b!731))

(assert (= (and d!660 c!180) b!730))

(assert (= (and d!660 (not c!180)) b!734))

(assert (= (and d!660 res!782) b!733))

(assert (= (and b!733 res!785) b!729))

(declare-fun m!921 () Bool)

(assert (=> b!730 m!921))

(assert (=> d!660 m!911))

(declare-fun m!923 () Bool)

(assert (=> d!660 m!923))

(declare-fun m!925 () Bool)

(assert (=> b!732 m!925))

(declare-fun m!927 () Bool)

(assert (=> b!733 m!927))

(assert (=> b!696 d!660))

(declare-fun d!662 () Bool)

(declare-fun res!788 () Bool)

(declare-fun e!496 () Bool)

(assert (=> d!662 (=> (not res!788) (not e!496))))

(assert (=> d!662 (= res!788 (= (size!15 (_2!45 lt!628)) #b00000000000000000000000000010100))))

(assert (=> d!662 (= (iqInv!0 (_2!45 lt!628)) e!496)))

(declare-fun b!737 () Bool)

(declare-fun lambda!17 () Int)

(declare-fun all20Int!0 (array!32 Int) Bool)

(assert (=> b!737 (= e!496 (all20Int!0 (_2!45 lt!628) lambda!17))))

(assert (= (and d!662 res!788) b!737))

(declare-fun m!929 () Bool)

(assert (=> b!737 m!929))

(assert (=> b!701 d!662))

(push 1)

(assert (not b!732))

(assert (not b!723))

(assert (not b!737))

(assert (not b!721))

(assert (not b!730))

(assert (not b!733))

(assert (not b!728))

(assert (not b!724))

(check-sat)

(pop 1)

(push 1)

(check-sat)

(pop 1)

